50
100
45
2341
208 2
906 82
495 37
379 30
355 10
129 35
648 17
327 46
430 93
257 7
300 88
37 45
619 39
596 91
241 25
696 18
583 1
360 80
82 23
478 52
586 60
974 45
33 24
365 41
87 80
444 45
934 61
725 87
107 77
685 32
280 66
548 72
46 28
228 7
322 75
447 91
908 59
211 32
502 98
628 5
540 80
54 68
749 96
887 35
90 53
776 95
775 1
534 60
278 84
613 69
611 2
683 58
935 7
293 51
633 82
104 38
240 17
690 92
673 12
560 28
505 23
469 87
718 43
406 54
249 16
952 58
554 21
827 69
481 40
337 89
162 55
100 13
10 82
249 12
818 29
401 51
604 2
690 59
500 82
787 31
427 15
70 5
618 67
920 53
957 34
315 3
482 78
618 14
619 18
667 64
721 27
445 11
319 62
39 66
505 29
121 98
11 63
101 93
207 77
942 40
